CUST NO.,XCOORD.,YCOORD.,updated_SERVICE_TIME,DEMAND,TW_START,TW_END
2,35,17.0,8,0.5,0.0,600.0
5,15,30.0,8,1.6,0.0,600.0
8,10,43.0,8,9.0,0.0,600.0
10,30,60.0,8,5.8,400.0,750.0
14,15,10.0,8,1.9,0.0,600.0
16,10,20.0,8,1.5,0.0,600.0
18,20,40.0,8,0.8,0.0,600.0
19,15,60.0,8,3.1,0.0,600.0
22,45,10.0,8,1.3,0.0,600.0
23,55,5.0,8,1.6,0.0,600.0
26,35,35.0,0,0.0,0.0,0.0
capacity,1000,,0,0.0,,
